(declare-fun temp70_1 () (_ BitVec 64))
(declare-fun var329332 () (_ BitVec 64))
(declare-fun temp70_2 () (_ BitVec 64))
(declare-fun var853620 () (_ BitVec 64))
(declare-fun temp70_3 () (_ BitVec 64))
(declare-fun var1312372 () (_ BitVec 64))
(declare-fun temp70_5 () (_ BitVec 64))
(declare-fun temp70_4 () (_ BitVec 64))
(assert (= temp70_1 #x0000000000000000))
(assert (= var329332 temp70_1))
(assert (= temp70_2 #x0000000000400000))
(assert (= var853620 temp70_2))
(assert (= temp70_3 #x0000000000000000))
(assert (= var1312372 temp70_3))
(assert (= temp70_5 #x0000000000000000))
(assert (= temp70_4 temp70_5))
(model-add temp70_1 () (_ BitVec 64) #x0000000000000000)
(model-add var329332 () (_ BitVec 64) #x0000000000000000)
(model-add temp70_2 () (_ BitVec 64) #x0000000000400000)
(model-add var853620 () (_ BitVec 64) #x0000000000400000)
(model-add temp70_3 () (_ BitVec 64) #x0000000000000000)
(model-add var1312372 () (_ BitVec 64) #x0000000000000000)
(model-add temp70_5 () (_ BitVec 64) #x0000000000000000)
(model-add temp70_4 () (_ BitVec 64) #x0000000000000000)






